Maximize
  5.9653116468755469e-04 Z_112_0_0 + 0.00652101041800057 Z_112_0_1
   + 0.8731503560563226 Z_112_0_2 + 0.0118289567078968 Z_112_0_3
   + 0.00790314565309257 Z_112_0_4 + 7.2892351051139263e-04 Z_390_0_0
   + 0.00426905266521855 Z_390_0_1 + 0.8776894035165234 Z_390_0_2
   + 0.00982260622767776 Z_390_0_3 + 0.00749001408006896 Z_390_0_4
   + 0.0173659394301883 Z_390_2_0 + 0.0229270588773904 Z_390_2_1
   + 0.0138273942063707 Z_390_2_2 + 0.7990810484684718 Z_390_2_3
   + 0.0467985590175786 Z_390_2_4 + 0.2248215983760158 Z_390_3_0
   + 0.1092585489308068 Z_390_3_1 + 0.0134299816302537 Z_390_3_2
   + 0.4351733329106868 Z_390_3_3 + 0.117316538152237 Z_390_3_4
   + 0.0409978248888612 Z_265_0_0 + 0.3465342078132375 Z_265_0_1
   + 0.014372336487299 Z_265_0_2 + 0.1168402306195158 Z_265_0_3
   + 0.3812554001910866 Z_265_0_4 + 0.00793727538530824 Z_496_2_0
   + 0.00575969135048606 Z_496_2_1 + 0.00826766830526346 Z_496_2_2
   + 0.009511955706275 Z_496_2_3 + 0.8685234092526672 Z_496_2_4
   + 0.00135314627478972 Z_496_1_0 + 9.4990589557639182e-04 Z_496_1_1
   + 0.00568809747917706 Z_496_1_2 + 0.00865221215886753 Z_496_1_3
   + 0.8833566381915893 Z_496_1_4 + 0.1429729955170474 Z_496_4_0
   + 0.0264946097642881 Z_496_4_1 + 0.00620670661988996 Z_496_4_2
   + 0.0168848028940548 Z_496_4_3 + 0.7074408852047197 Z_496_4_4
   + 0.00281295863221803 Z_496_3_0 + 0.0215059868695852 Z_496_3_1
   + 0.1102793349653114 Z_496_3_2 + 0.0218174594801468 Z_496_3_3
   + 0.7435842600527386 Z_496_3_4 + 0.0355437577360436 Z_253_1_0
   + 0.0268053218842058 Z_253_1_1 + 0.0436133654888721 Z_253_1_2
   + 0.00137503317607392 Z_253_1_3 + 0.7926625217148047 Z_253_1_4
   + 0.00315161134524012 Z_253_2_0 + 0.1264404351332007 Z_253_2_1
   + 0.0474223542728177 Z_253_2_2 + 7.7006023010007412e-04 Z_253_2_3
   + 0.7222155390186416 Z_253_2_4 + 4.4486925912816031e-04 Z_253_0_0
   + 2.0201136289809196e-04 Z_253_0_1 + 0.0587384990507095 Z_253_0_2
   + 0.00112317350835735 Z_253_0_3 + 0.8394914468189069 Z_253_0_4
   + 0.00200780011073725 Z_165_0_0 + 0.0125562386934284 Z_165_0_1
   + 0.0954102014163716 Z_165_0_2 + 0.0139475251065892 Z_165_0_3
   + 0.7760782346728735 Z_165_0_4 + 0.000373758 Z_202_0_0
   + 0.000693656 Z_202_0_1 + 0.7994534623428701 Z_202_0_2
   + 0.00261288423105439 Z_202_0_3 + 0.096866239354031 Z_202_0_4
   + 0.0023125797450946 Z_401_0_0 + 0.00190625653392479 Z_401_0_1
   + 0.8024980942199484 Z_401_0_2 + 0.00206685216398146 Z_401_0_3
   + 0.0912162173370508 Z_401_0_4 + 0.0177121737638557 Z_11_0_0
   + 0.8115931031359361 Z_11_0_1 + 0.0105404497169482 Z_11_0_2
   + 0.00308274352654034 Z_11_0_3 + 0.0570715298567195 Z_11_0_4
   + 9.1154038672382643e-04 Z_474_0_0 + 0.00221090838283499 Z_474_0_1
   + 0.8547114383598202 Z_474_0_2 + 0.00824899824114656 Z_474_0_3
   + 0.0339171146294744 Z_474_0_4 + 0.0863768057104345 Z_474_3_0
   + 0.0160391364417207 Z_474_3_1 + 0.0263047811051293 Z_474_3_2
   + 0.2288019484529605 Z_474_3_3 + 0.5424773282897553 Z_474_3_4
   + 0.0103669625457595 Z_474_2_0 + 0.0739567279985422 Z_474_2_1
   + 0.00658478773892273 Z_474_2_2 + 0.7810691480809926 Z_474_2_3
   + 0.0280223736357831 Z_474_2_4 + 0.0420584272352949 Z_242_3_0
   + 0.0364516034980909 Z_242_3_1 + 0.00355522159343357 Z_242_3_2
   + 0.0786169559394322 Z_242_3_3 + 0.7393177917337485 Z_242_3_4
   + 0.000169937 Z_242_4_0 + 0.00699945050114555 Z_242_4_1
   + 0.2485394429486866 Z_242_4_2 + 9.5621233304169569e-04 Z_242_4_3
   + 0.6433349572576857 Z_242_4_4 + 0.00793727538530824 Z_242_2_0
   + 0.00575969135048606 Z_242_2_1 + 0.00826766830526346 Z_242_2_2
   + 0.009511955706275 Z_242_2_3 + 0.8685234092526672 Z_242_2_4
   + 7.6781145622058537e-04 Z_242_1_0 + 0.00148411590630669 Z_242_1_1
   + 0.0027906589801456 Z_242_1_2 + 0.00608833205223582 Z_242_1_3
   + 0.8888690816050914 Z_242_1_4 + 0.0420584272352949 Z_242_5_0
   + 0.0364516034980909 Z_242_5_1 + 0.00355522159343357 Z_242_5_2
   + 0.0786169559394322 Z_242_5_3 + 0.7393177917337485 Z_242_5_4
   + 0.0023125797450946 Z_121_0_0 + 0.00190625653392479 Z_121_0_1
   + 0.8024980942199484 Z_121_0_2 + 0.00206685216398146 Z_121_0_3
   + 0.0912162173370508 Z_121_0_4 + 0.6720908325902092 Z_121_1_0
   + 0.0783798051719399 Z_121_1_1 + 0.0225521414305249 Z_121_1_2
   + 0.0798938224283469 Z_121_1_3 + 0.0470833983789793 Z_121_1_4
   + 0.00715938167868949 Z_555_0_0 + 0.849844472400614 Z_555_0_1
   + 0.00693516823928245 Z_555_0_2 + 0.0147811119727059 Z_555_0_3
   + 0.0212798657087081 Z_555_0_4 + [ 0.4 Z_112_0_0 * Z_202_0_0
   + 0.00154320987654321 Z_112_0_0 * Z_401_0_0 + 0.4 Z_112_0_0 * Z_474_0_0
   + 0.00154320987654321 Z_112_0_0 * Z_121_0_0 + 0.4 Z_112_0_1 * Z_202_0_1
   + 0.00154320987654321 Z_112_0_1 * Z_401_0_1 + 0.4 Z_112_0_1 * Z_474_0_1
   + 0.00154320987654321 Z_112_0_1 * Z_121_0_1 + 0.4 Z_112_0_2 * Z_202_0_2
   + 0.00154320987654321 Z_112_0_2 * Z_401_0_2 + 0.4 Z_112_0_2 * Z_474_0_2
   + 0.00154320987654321 Z_112_0_2 * Z_121_0_2 + 0.4 Z_112_0_3 * Z_202_0_3
   + 0.00154320987654321 Z_112_0_3 * Z_401_0_3 + 0.4 Z_112_0_3 * Z_474_0_3
   + 0.00154320987654321 Z_112_0_3 * Z_121_0_3 + 0.4 Z_112_0_4 * Z_202_0_4
   + 0.00154320987654321 Z_112_0_4 * Z_401_0_4 + 0.4 Z_112_0_4 * Z_474_0_4
   + 0.00154320987654321 Z_112_0_4 * Z_121_0_4
   + 2.55102e-06 Z_390_0_0 * Z_401_0_0 + 6.67924e-05 Z_390_0_0 * Z_242_3_0
   + 1.2527364723241216e-04 Z_390_0_0 * Z_242_5_0
   + 2.55102e-06 Z_390_0_0 * Z_121_0_0 + 2.55102e-06 Z_390_0_1 * Z_401_0_1
   + 6.67924e-05 Z_390_0_1 * Z_242_3_1
   + 1.2527364723241216e-04 Z_390_0_1 * Z_242_5_1
   + 2.55102e-06 Z_390_0_1 * Z_121_0_1 + 2.55102e-06 Z_390_0_2 * Z_401_0_2
   + 6.67924e-05 Z_390_0_2 * Z_242_3_2
   + 1.2527364723241216e-04 Z_390_0_2 * Z_242_5_2
   + 2.55102e-06 Z_390_0_2 * Z_121_0_2 + 2.55102e-06 Z_390_0_3 * Z_401_0_3
   + 6.67924e-05 Z_390_0_3 * Z_242_3_3
   + 1.2527364723241216e-04 Z_390_0_3 * Z_242_5_3
   + 2.55102e-06 Z_390_0_3 * Z_121_0_3 + 2.55102e-06 Z_390_0_4 * Z_401_0_4
   + 6.67924e-05 Z_390_0_4 * Z_242_3_4
   + 1.2527364723241216e-04 Z_390_0_4 * Z_242_5_4
   + 2.55102e-06 Z_390_0_4 * Z_121_0_4 + 5.49388e-05 Z_390_2_0 * Z_496_4_0
   + 8.4162e-05 Z_390_2_0 * Z_253_2_0
   + 0.1888152853377924 Z_390_2_0 * Z_165_0_0
   + 0.1888152853377924 Z_390_2_0 * Z_474_3_0
   + 0.1888152853377924 Z_390_2_0 * Z_474_2_0
   + 2.1975516614173508e-04 Z_390_2_0 * Z_242_3_0
   + 2.1975516614173508e-04 Z_390_2_0 * Z_242_5_0
   + 0.0527961786655519 Z_390_2_0 * Z_555_0_0
   + 5.49388e-05 Z_390_2_1 * Z_496_4_1 + 8.4162e-05 Z_390_2_1 * Z_253_2_1
   + 0.1888152853377924 Z_390_2_1 * Z_165_0_1
   + 0.1888152853377924 Z_390_2_1 * Z_474_3_1
   + 0.1888152853377924 Z_390_2_1 * Z_474_2_1
   + 2.1975516614173508e-04 Z_390_2_1 * Z_242_3_1
   + 2.1975516614173508e-04 Z_390_2_1 * Z_242_5_1
   + 0.0527961786655519 Z_390_2_1 * Z_555_0_1
   + 5.49388e-05 Z_390_2_2 * Z_496_4_2 + 8.4162e-05 Z_390_2_2 * Z_253_2_2
   + 0.1888152853377924 Z_390_2_2 * Z_165_0_2
   + 0.1888152853377924 Z_390_2_2 * Z_474_3_2
   + 0.1888152853377924 Z_390_2_2 * Z_474_2_2
   + 2.1975516614173508e-04 Z_390_2_2 * Z_242_3_2
   + 2.1975516614173508e-04 Z_390_2_2 * Z_242_5_2
   + 0.0527961786655519 Z_390_2_2 * Z_555_0_2
   + 5.49388e-05 Z_390_2_3 * Z_496_4_3 + 8.4162e-05 Z_390_2_3 * Z_253_2_3
   + 0.1888152853377924 Z_390_2_3 * Z_165_0_3
   + 0.1888152853377924 Z_390_2_3 * Z_474_3_3
   + 0.1888152853377924 Z_390_2_3 * Z_474_2_3
   + 2.1975516614173508e-04 Z_390_2_3 * Z_242_3_3
   + 2.1975516614173508e-04 Z_390_2_3 * Z_242_5_3
   + 0.0527961786655519 Z_390_2_3 * Z_555_0_3
   + 5.49388e-05 Z_390_2_4 * Z_496_4_4 + 8.4162e-05 Z_390_2_4 * Z_253_2_4
   + 0.1888152853377924 Z_390_2_4 * Z_165_0_4
   + 0.1888152853377924 Z_390_2_4 * Z_474_3_4
   + 0.1888152853377924 Z_390_2_4 * Z_474_2_4
   + 2.1975516614173508e-04 Z_390_2_4 * Z_242_3_4
   + 2.1975516614173508e-04 Z_390_2_4 * Z_242_5_4
   + 0.0527961786655519 Z_390_2_4 * Z_555_0_4
   + 8.4162e-05 Z_390_3_0 * Z_253_2_0
   + 0.2056331445324097 Z_390_3_0 * Z_165_0_0
   + 0.2056331445324097 Z_390_3_0 * Z_474_3_0
   + 0.2056331445324097 Z_390_3_0 * Z_474_2_0
   + 3.81294e-05 Z_390_3_0 * Z_242_3_0 + 7.15142e-05 Z_390_3_0 * Z_242_5_0
   + 8.4162e-05 Z_390_3_1 * Z_253_2_1
   + 0.2056331445324097 Z_390_3_1 * Z_165_0_1
   + 0.2056331445324097 Z_390_3_1 * Z_474_3_1
   + 0.2056331445324097 Z_390_3_1 * Z_474_2_1
   + 3.81294e-05 Z_390_3_1 * Z_242_3_1 + 7.15142e-05 Z_390_3_1 * Z_242_5_1
   + 8.4162e-05 Z_390_3_2 * Z_253_2_2
   + 0.2056331445324097 Z_390_3_2 * Z_165_0_2
   + 0.2056331445324097 Z_390_3_2 * Z_474_3_2
   + 0.2056331445324097 Z_390_3_2 * Z_474_2_2
   + 3.81294e-05 Z_390_3_2 * Z_242_3_2 + 7.15142e-05 Z_390_3_2 * Z_242_5_2
   + 8.4162e-05 Z_390_3_3 * Z_253_2_3
   + 0.2056331445324097 Z_390_3_3 * Z_165_0_3
   + 0.2056331445324097 Z_390_3_3 * Z_474_3_3
   + 0.2056331445324097 Z_390_3_3 * Z_474_2_3
   + 3.81294e-05 Z_390_3_3 * Z_242_3_3 + 7.15142e-05 Z_390_3_3 * Z_242_5_3
   + 8.4162e-05 Z_390_3_4 * Z_253_2_4
   + 0.2056331445324097 Z_390_3_4 * Z_165_0_4
   + 0.2056331445324097 Z_390_3_4 * Z_474_3_4
   + 0.2056331445324097 Z_390_3_4 * Z_474_2_4
   + 3.81294e-05 Z_390_3_4 * Z_242_3_4 + 7.15142e-05 Z_390_3_4 * Z_242_5_4
   + 0.4 Z_496_2_0 * Z_253_2_0 + 0.0123539245109304 Z_496_2_0 * Z_242_3_0
   + 0.4 Z_496_2_0 * Z_242_2_0 + 0.023170613792107 Z_496_2_0 * Z_242_5_0
   + 0.4 Z_496_2_1 * Z_253_2_1 + 0.0123539245109304 Z_496_2_1 * Z_242_3_1
   + 0.4 Z_496_2_1 * Z_242_2_1 + 0.023170613792107 Z_496_2_1 * Z_242_5_1
   + 0.4 Z_496_2_2 * Z_253_2_2 + 0.0123539245109304 Z_496_2_2 * Z_242_3_2
   + 0.4 Z_496_2_2 * Z_242_2_2 + 0.023170613792107 Z_496_2_2 * Z_242_5_2
   + 0.4 Z_496_2_3 * Z_253_2_3 + 0.0123539245109304 Z_496_2_3 * Z_242_3_3
   + 0.4 Z_496_2_3 * Z_242_2_3 + 0.023170613792107 Z_496_2_3 * Z_242_5_3
   + 0.4 Z_496_2_4 * Z_253_2_4 + 0.0123539245109304 Z_496_2_4 * Z_242_3_4
   + 0.4 Z_496_2_4 * Z_242_2_4 + 0.023170613792107 Z_496_2_4 * Z_242_5_4
   + 0.4 Z_496_1_0 * Z_242_1_0 + 0.4 Z_496_1_1 * Z_242_1_1
   + 0.4 Z_496_1_2 * Z_242_1_2 + 0.4 Z_496_1_3 * Z_242_1_3
   + 0.4 Z_496_1_4 * Z_242_1_4 + 0.0027681660899654 Z_253_2_0 * Z_401_0_0
   + 8.4162e-05 Z_253_2_0 * Z_474_2_0
   + 0.0413773752830639 Z_253_2_0 * Z_242_3_0 + 0.4 Z_253_2_0 * Z_242_2_0
   + 0.037041008405577 Z_253_2_0 * Z_242_5_0
   + 0.0027681660899654 Z_253_2_0 * Z_121_0_0
   + 4.4444444444444436e-04 Z_253_2_0 * Z_121_1_0
   + 0.0027681660899654 Z_253_2_1 * Z_401_0_1
   + 8.4162e-05 Z_253_2_1 * Z_474_2_1
   + 0.0413773752830639 Z_253_2_1 * Z_242_3_1 + 0.4 Z_253_2_1 * Z_242_2_1
   + 0.037041008405577 Z_253_2_1 * Z_242_5_1
   + 0.0027681660899654 Z_253_2_1 * Z_121_0_1
   + 4.4444444444444436e-04 Z_253_2_1 * Z_121_1_1
   + 0.0027681660899654 Z_253_2_2 * Z_401_0_2
   + 8.4162e-05 Z_253_2_2 * Z_474_2_2
   + 0.0413773752830639 Z_253_2_2 * Z_242_3_2 + 0.4 Z_253_2_2 * Z_242_2_2
   + 0.037041008405577 Z_253_2_2 * Z_242_5_2
   + 0.0027681660899654 Z_253_2_2 * Z_121_0_2
   + 4.4444444444444436e-04 Z_253_2_2 * Z_121_1_2
   + 0.0027681660899654 Z_253_2_3 * Z_401_0_3
   + 8.4162e-05 Z_253_2_3 * Z_474_2_3
   + 0.0413773752830639 Z_253_2_3 * Z_242_3_3 + 0.4 Z_253_2_3 * Z_242_2_3
   + 0.037041008405577 Z_253_2_3 * Z_242_5_3
   + 0.0027681660899654 Z_253_2_3 * Z_121_0_3
   + 4.4444444444444436e-04 Z_253_2_3 * Z_121_1_3
   + 0.0027681660899654 Z_253_2_4 * Z_401_0_4
   + 8.4162e-05 Z_253_2_4 * Z_474_2_4
   + 0.0413773752830639 Z_253_2_4 * Z_242_3_4 + 0.4 Z_253_2_4 * Z_242_2_4
   + 0.037041008405577 Z_253_2_4 * Z_242_5_4
   + 0.0027681660899654 Z_253_2_4 * Z_121_0_4
   + 4.4444444444444436e-04 Z_253_2_4 * Z_121_1_4
   + 0.4 Z_165_0_0 * Z_474_3_0 + 0.1520757291164853 Z_165_0_0 * Z_474_2_0
   + 0.4 Z_165_0_1 * Z_474_3_1 + 0.1520757291164853 Z_165_0_1 * Z_474_2_1
   + 0.4 Z_165_0_2 * Z_474_3_2 + 0.1520757291164853 Z_165_0_2 * Z_474_2_2
   + 0.4 Z_165_0_3 * Z_474_3_3 + 0.1520757291164853 Z_165_0_3 * Z_474_2_3
   + 0.4 Z_165_0_4 * Z_474_3_4 + 0.1520757291164853 Z_165_0_4 * Z_474_2_4
   + 0.00154320987654321 Z_202_0_0 * Z_401_0_0 + 0.4 Z_202_0_0 * Z_474_0_0
   + 0.00154320987654321 Z_202_0_0 * Z_121_0_0
   + 0.00154320987654321 Z_202_0_1 * Z_401_0_1 + 0.4 Z_202_0_1 * Z_474_0_1
   + 0.00154320987654321 Z_202_0_1 * Z_121_0_1
   + 0.00154320987654321 Z_202_0_2 * Z_401_0_2 + 0.4 Z_202_0_2 * Z_474_0_2
   + 0.00154320987654321 Z_202_0_2 * Z_121_0_2
   + 0.00154320987654321 Z_202_0_3 * Z_401_0_3 + 0.4 Z_202_0_3 * Z_474_0_3
   + 0.00154320987654321 Z_202_0_3 * Z_121_0_3
   + 0.00154320987654321 Z_202_0_4 * Z_401_0_4 + 0.4 Z_202_0_4 * Z_474_0_4
   + 0.00154320987654321 Z_202_0_4 * Z_121_0_4
   + 0.00154320987654321 Z_401_0_0 * Z_474_0_0
   + 3.4316456974806586e-04 Z_401_0_0 * Z_242_3_0
   + 6.4362816089185977e-04 Z_401_0_0 * Z_242_5_0
   + 0.4 Z_401_0_0 * Z_121_0_0 + 0.00154320987654321 Z_401_0_1 * Z_474_0_1
   + 3.4316456974806586e-04 Z_401_0_1 * Z_242_3_1
   + 6.4362816089185977e-04 Z_401_0_1 * Z_242_5_1
   + 0.4 Z_401_0_1 * Z_121_0_1 + 0.00154320987654321 Z_401_0_2 * Z_474_0_2
   + 3.4316456974806586e-04 Z_401_0_2 * Z_242_3_2
   + 6.4362816089185977e-04 Z_401_0_2 * Z_242_5_2
   + 0.4 Z_401_0_2 * Z_121_0_2 + 0.00154320987654321 Z_401_0_3 * Z_474_0_3
   + 3.4316456974806586e-04 Z_401_0_3 * Z_242_3_3
   + 6.4362816089185977e-04 Z_401_0_3 * Z_242_5_3
   + 0.4 Z_401_0_3 * Z_121_0_3 + 0.00154320987654321 Z_401_0_4 * Z_474_0_4
   + 3.4316456974806586e-04 Z_401_0_4 * Z_242_3_4
   + 6.4362816089185977e-04 Z_401_0_4 * Z_242_5_4
   + 0.4 Z_401_0_4 * Z_121_0_4 + 0.00154320987654321 Z_474_0_0 * Z_121_0_0
   + 0.00154320987654321 Z_474_0_1 * Z_121_0_1
   + 0.00154320987654321 Z_474_0_2 * Z_121_0_2
   + 0.00154320987654321 Z_474_0_3 * Z_121_0_3
   + 0.00154320987654321 Z_474_0_4 * Z_121_0_4
   + 3.81294e-05 Z_474_2_0 * Z_242_3_0 + 7.15142e-05 Z_474_2_0 * Z_242_5_0
   + 3.81294e-05 Z_474_2_1 * Z_242_3_1 + 7.15142e-05 Z_474_2_1 * Z_242_5_1
   + 3.81294e-05 Z_474_2_2 * Z_242_3_2 + 7.15142e-05 Z_474_2_2 * Z_242_5_2
   + 3.81294e-05 Z_474_2_3 * Z_242_3_3 + 7.15142e-05 Z_474_2_3 * Z_242_5_3
   + 3.81294e-05 Z_474_2_4 * Z_242_3_4 + 7.15142e-05 Z_474_2_4 * Z_242_5_4
   + 3.4316456974806586e-04 Z_242_3_0 * Z_121_0_0
   + 0.00541464487598475 Z_242_3_0 * Z_555_0_0
   + 3.4316456974806586e-04 Z_242_3_1 * Z_121_0_1
   + 0.00541464487598475 Z_242_3_1 * Z_555_0_1
   + 3.4316456974806586e-04 Z_242_3_2 * Z_121_0_2
   + 0.00541464487598475 Z_242_3_2 * Z_555_0_2
   + 3.4316456974806586e-04 Z_242_3_3 * Z_121_0_3
   + 0.00541464487598475 Z_242_3_3 * Z_555_0_3
   + 3.4316456974806586e-04 Z_242_3_4 * Z_121_0_4
   + 0.00541464487598475 Z_242_3_4 * Z_555_0_4
   + 6.4362816089185977e-04 Z_242_5_0 * Z_121_0_0
   + 0.0101555295349142 Z_242_5_0 * Z_555_0_0
   + 6.4362816089185977e-04 Z_242_5_1 * Z_121_0_1
   + 0.0101555295349142 Z_242_5_1 * Z_555_0_1
   + 6.4362816089185977e-04 Z_242_5_2 * Z_121_0_2
   + 0.0101555295349142 Z_242_5_2 * Z_555_0_2
   + 6.4362816089185977e-04 Z_242_5_3 * Z_121_0_3
   + 0.0101555295349142 Z_242_5_3 * Z_555_0_3
   + 6.4362816089185977e-04 Z_242_5_4 * Z_121_0_4
   + 0.0101555295349142 Z_242_5_4 * Z_555_0_4 ] / 2 
Subject To
 constraint1_1120: Z_112_0_0 + Z_112_0_1 + Z_112_0_2 + Z_112_0_3
   + Z_112_0_4 <= 1
 constraint1_3900: Z_390_0_0 + Z_390_0_1 + Z_390_0_2 + Z_390_0_3
   + Z_390_0_4 <= 1
 constraint1_3902: Z_390_2_0 + Z_390_2_1 + Z_390_2_2 + Z_390_2_3
   + Z_390_2_4 <= 1
 constraint1_3903: Z_390_3_0 + Z_390_3_1 + Z_390_3_2 + Z_390_3_3
   + Z_390_3_4 <= 1
 constraint1_2650: Z_265_0_0 + Z_265_0_1 + Z_265_0_2 + Z_265_0_3
   + Z_265_0_4 <= 1
 constraint1_4962: Z_496_2_0 + Z_496_2_1 + Z_496_2_2 + Z_496_2_3
   + Z_496_2_4 <= 1
 constraint1_4961: Z_496_1_0 + Z_496_1_1 + Z_496_1_2 + Z_496_1_3
   + Z_496_1_4 <= 1
 constraint1_4964: Z_496_4_0 + Z_496_4_1 + Z_496_4_2 + Z_496_4_3
   + Z_496_4_4 <= 1
 constraint1_4963: Z_496_3_0 + Z_496_3_1 + Z_496_3_2 + Z_496_3_3
   + Z_496_3_4 <= 1
 constraint1_2531: Z_253_1_0 + Z_253_1_1 + Z_253_1_2 + Z_253_1_3
   + Z_253_1_4 <= 1
 constraint1_2532: Z_253_2_0 + Z_253_2_1 + Z_253_2_2 + Z_253_2_3
   + Z_253_2_4 <= 1
 constraint1_2530: Z_253_0_0 + Z_253_0_1 + Z_253_0_2 + Z_253_0_3
   + Z_253_0_4 <= 1
 constraint1_1650: Z_165_0_0 + Z_165_0_1 + Z_165_0_2 + Z_165_0_3
   + Z_165_0_4 <= 1
 constraint1_2020: Z_202_0_0 + Z_202_0_1 + Z_202_0_2 + Z_202_0_3
   + Z_202_0_4 <= 1
 constraint1_4010: Z_401_0_0 + Z_401_0_1 + Z_401_0_2 + Z_401_0_3
   + Z_401_0_4 <= 1
 constraint1_110: Z_11_0_0 + Z_11_0_1 + Z_11_0_2 + Z_11_0_3 + Z_11_0_4
   <= 1
 constraint1_4740: Z_474_0_0 + Z_474_0_1 + Z_474_0_2 + Z_474_0_3
   + Z_474_0_4 <= 1
 constraint1_4743: Z_474_3_0 + Z_474_3_1 + Z_474_3_2 + Z_474_3_3
   + Z_474_3_4 <= 1
 constraint1_4742: Z_474_2_0 + Z_474_2_1 + Z_474_2_2 + Z_474_2_3
   + Z_474_2_4 <= 1
 constraint1_2423: Z_242_3_0 + Z_242_3_1 + Z_242_3_2 + Z_242_3_3
   + Z_242_3_4 <= 1
 constraint1_2424: Z_242_4_0 + Z_242_4_1 + Z_242_4_2 + Z_242_4_3
   + Z_242_4_4 <= 1
 constraint1_2422: Z_242_2_0 + Z_242_2_1 + Z_242_2_2 + Z_242_2_3
   + Z_242_2_4 <= 1
 constraint1_2421: Z_242_1_0 + Z_242_1_1 + Z_242_1_2 + Z_242_1_3
   + Z_242_1_4 <= 1
 constraint1_2425: Z_242_5_0 + Z_242_5_1 + Z_242_5_2 + Z_242_5_3
   + Z_242_5_4 <= 1
 constraint1_1210: Z_121_0_0 + Z_121_0_1 + Z_121_0_2 + Z_121_0_3
   + Z_121_0_4 <= 1
 constraint1_1211: Z_121_1_0 + Z_121_1_1 + Z_121_1_2 + Z_121_1_3
   + Z_121_1_4 <= 1
 constraint1_5550: Z_555_0_0 + Z_555_0_1 + Z_555_0_2 + Z_555_0_3
   + Z_555_0_4 <= 1
 constraint2_1120: Z_112_0_0 <= 1
 constraint2_1121: Z_112_0_1 <= 1
 constraint2_1122: Z_112_0_2 <= 1
 constraint2_1123: Z_112_0_3 <= 1
 constraint2_3900: Z_390_0_0 + Z_390_2_0 + Z_390_3_0 <= 1
 constraint2_3901: Z_390_0_1 + Z_390_2_1 + Z_390_3_1 <= 1
 constraint2_3902: Z_390_0_2 + Z_390_2_2 + Z_390_3_2 <= 1
 constraint2_3903: Z_390_0_3 + Z_390_2_3 + Z_390_3_3 <= 1
 constraint2_2650: Z_265_0_0 <= 1
 constraint2_2651: Z_265_0_1 <= 1
 constraint2_2652: Z_265_0_2 <= 1
 constraint2_2653: Z_265_0_3 <= 1
 constraint2_4960: Z_496_2_0 + Z_496_1_0 + Z_496_4_0 + Z_496_3_0 <= 1
 constraint2_4961: Z_496_2_1 + Z_496_1_1 + Z_496_4_1 + Z_496_3_1 <= 1
 constraint2_4962: Z_496_2_2 + Z_496_1_2 + Z_496_4_2 + Z_496_3_2 <= 1
 constraint2_4963: Z_496_2_3 + Z_496_1_3 + Z_496_4_3 + Z_496_3_3 <= 1
 constraint2_2530: Z_253_1_0 + Z_253_2_0 + Z_253_0_0 <= 1
 constraint2_2531: Z_253_1_1 + Z_253_2_1 + Z_253_0_1 <= 1
 constraint2_2532: Z_253_1_2 + Z_253_2_2 + Z_253_0_2 <= 1
 constraint2_2533: Z_253_1_3 + Z_253_2_3 + Z_253_0_3 <= 1
 constraint2_1650: Z_165_0_0 <= 1
 constraint2_1651: Z_165_0_1 <= 1
 constraint2_1652: Z_165_0_2 <= 1
 constraint2_1653: Z_165_0_3 <= 1
 constraint2_2020: Z_202_0_0 <= 1
 constraint2_2021: Z_202_0_1 <= 1
 constraint2_2022: Z_202_0_2 <= 1
 constraint2_2023: Z_202_0_3 <= 1
 constraint2_1930: <= 1
 constraint2_1931: <= 1
 constraint2_1932: <= 1
 constraint2_1933: <= 1
 constraint2_4010: Z_401_0_0 <= 1
 constraint2_4011: Z_401_0_1 <= 1
 constraint2_4012: Z_401_0_2 <= 1
 constraint2_4013: Z_401_0_3 <= 1
 constraint2_110: Z_11_0_0 <= 1
 constraint2_111: Z_11_0_1 <= 1
 constraint2_112: Z_11_0_2 <= 1
 constraint2_113: Z_11_0_3 <= 1
 constraint2_4740: Z_474_0_0 + Z_474_3_0 + Z_474_2_0 <= 1
 constraint2_4741: Z_474_0_1 + Z_474_3_1 + Z_474_2_1 <= 1
 constraint2_4742: Z_474_0_2 + Z_474_3_2 + Z_474_2_2 <= 1
 constraint2_4743: Z_474_0_3 + Z_474_3_3 + Z_474_2_3 <= 1
 constraint2_2420: Z_242_3_0 + Z_242_4_0 + Z_242_2_0 + Z_242_1_0
   + Z_242_5_0 <= 1
 constraint2_2421: Z_242_3_1 + Z_242_4_1 + Z_242_2_1 + Z_242_1_1
   + Z_242_5_1 <= 1
 constraint2_2422: Z_242_3_2 + Z_242_4_2 + Z_242_2_2 + Z_242_1_2
   + Z_242_5_2 <= 1
 constraint2_2423: Z_242_3_3 + Z_242_4_3 + Z_242_2_3 + Z_242_1_3
   + Z_242_5_3 <= 1
 constraint2_1210: Z_121_0_0 + Z_121_1_0 <= 1
 constraint2_1211: Z_121_0_1 + Z_121_1_1 <= 1
 constraint2_1212: Z_121_0_2 + Z_121_1_2 <= 1
 constraint2_1213: Z_121_0_3 + Z_121_1_3 <= 1
 constraint2_5550: Z_555_0_0 <= 1
 constraint2_5551: Z_555_0_1 <= 1
 constraint2_5552: Z_555_0_2 <= 1
 constraint2_5553: Z_555_0_3 <= 1
 constraint2_220: <= 1
 constraint2_221: <= 1
 constraint2_222: <= 1
 constraint2_223: <= 1
Bounds
Binaries
 Z_112_0_0 Z_112_0_1 Z_112_0_2 Z_112_0_3 Z_112_0_4 Z_390_0_0 Z_390_0_1
 Z_390_0_2 Z_390_0_3 Z_390_0_4 Z_390_2_0 Z_390_2_1 Z_390_2_2 Z_390_2_3
 Z_390_2_4 Z_390_3_0 Z_390_3_1 Z_390_3_2 Z_390_3_3 Z_390_3_4 Z_265_0_0
 Z_265_0_1 Z_265_0_2 Z_265_0_3 Z_265_0_4 Z_496_2_0 Z_496_2_1 Z_496_2_2
 Z_496_2_3 Z_496_2_4 Z_496_1_0 Z_496_1_1 Z_496_1_2 Z_496_1_3 Z_496_1_4
 Z_496_4_0 Z_496_4_1 Z_496_4_2 Z_496_4_3 Z_496_4_4 Z_496_3_0 Z_496_3_1
 Z_496_3_2 Z_496_3_3 Z_496_3_4 Z_253_1_0 Z_253_1_1 Z_253_1_2 Z_253_1_3
 Z_253_1_4 Z_253_2_0 Z_253_2_1 Z_253_2_2 Z_253_2_3 Z_253_2_4 Z_253_0_0
 Z_253_0_1 Z_253_0_2 Z_253_0_3 Z_253_0_4 Z_165_0_0 Z_165_0_1 Z_165_0_2
 Z_165_0_3 Z_165_0_4 Z_202_0_0 Z_202_0_1 Z_202_0_2 Z_202_0_3 Z_202_0_4
 Z_401_0_0 Z_401_0_1 Z_401_0_2 Z_401_0_3 Z_401_0_4 Z_11_0_0 Z_11_0_1
 Z_11_0_2 Z_11_0_3 Z_11_0_4 Z_474_0_0 Z_474_0_1 Z_474_0_2 Z_474_0_3
 Z_474_0_4 Z_474_3_0 Z_474_3_1 Z_474_3_2 Z_474_3_3 Z_474_3_4 Z_474_2_0
 Z_474_2_1 Z_474_2_2 Z_474_2_3 Z_474_2_4 Z_242_3_0 Z_242_3_1 Z_242_3_2
 Z_242_3_3 Z_242_3_4 Z_242_4_0 Z_242_4_1 Z_242_4_2 Z_242_4_3 Z_242_4_4
 Z_242_2_0 Z_242_2_1 Z_242_2_2 Z_242_2_3 Z_242_2_4 Z_242_1_0 Z_242_1_1
 Z_242_1_2 Z_242_1_3 Z_242_1_4 Z_242_5_0 Z_242_5_1 Z_242_5_2 Z_242_5_3
 Z_242_5_4 Z_121_0_0 Z_121_0_1 Z_121_0_2 Z_121_0_3 Z_121_0_4 Z_121_1_0
 Z_121_1_1 Z_121_1_2 Z_121_1_3 Z_121_1_4 Z_555_0_0 Z_555_0_1 Z_555_0_2
 Z_555_0_3 Z_555_0_4
End
